language Essence 1.3

letting codeWordLength be 38
letting dist be
        function((1, 1) --> 0, (1, 2) --> 9, (1, 3) --> 8, (1, 4) --> 8, (1, 5) --> 7, (1, 6) --> 23, (1, 7) --> 17,
                 (1, 8) --> 18, (1, 9) --> 14, (1, 10) --> 12, (1, 11) --> 9, (1, 12) --> 19, (1, 13) --> 4,
                 (1, 14) --> 0, (1, 15) --> 7, (2, 1) --> 9, (2, 2) --> 0, (2, 3) --> 2, (2, 4) --> 0, (2, 5) --> 18,
                 (2, 6) --> 1, (2, 7) --> 2, (2, 8) --> 11, (2, 9) --> 20, (2, 10) --> 19, (2, 11) --> 21,
                 (2, 12) --> 13, (2, 13) --> 1, (2, 14) --> 8, (2, 15) --> 2, (3, 1) --> 8, (3, 2) --> 2, (3, 3) --> 0,
                 (3, 4) --> 5, (3, 5) --> 18, (3, 6) --> 4, (3, 7) --> 8, (3, 8) --> 3, (3, 9) --> 8, (3, 10) --> 12,
                 (3, 11) --> 4, (3, 12) --> 7, (3, 13) --> 3, (3, 14) --> 21, (3, 15) --> 6, (4, 1) --> 8, (4, 2) --> 0,
                 (4, 3) --> 5, (4, 4) --> 0, (4, 5) --> 3, (4, 6) --> 12, (4, 7) --> 13, (4, 8) --> 17, (4, 9) --> 18,
                 (4, 10) --> 6, (4, 11) --> 18, (4, 12) --> 7, (4, 13) --> 17, (4, 14) --> 14, (4, 15) --> 13,
                 (5, 1) --> 7, (5, 2) --> 18, (5, 3) --> 18, (5, 4) --> 3, (5, 5) --> 0, (5, 6) --> 7, (5, 7) --> 18,
                 (5, 8) --> 21, (5, 9) --> 21, (5, 10) --> 4, (5, 11) --> 10, (5, 12) --> 14, (5, 13) --> 19,
                 (5, 14) --> 15, (5, 15) --> 19, (6, 1) --> 23, (6, 2) --> 1, (6, 3) --> 4, (6, 4) --> 12, (6, 5) --> 7,
                 (6, 6) --> 0, (6, 7) --> 8, (6, 8) --> 13, (6, 9) --> 1, (6, 10) --> 16, (6, 11) --> 6, (6, 12) --> 21,
                 (6, 13) --> 4, (6, 14) --> 12, (6, 15) --> 8, (7, 1) --> 17, (7, 2) --> 2, (7, 3) --> 8, (7, 4) --> 13,
                 (7, 5) --> 18, (7, 6) --> 8, (7, 7) --> 0, (7, 8) --> 5, (7, 9) --> 4, (7, 10) --> 17, (7, 11) --> 2,
                 (7, 12) --> 19, (7, 13) --> 4, (7, 14) --> 22, (7, 15) --> 23, (8, 1) --> 18, (8, 2) --> 11,
                 (8, 3) --> 3, (8, 4) --> 17, (8, 5) --> 21, (8, 6) --> 13, (8, 7) --> 5, (8, 8) --> 0, (8, 9) --> 16,
                 (8, 10) --> 5, (8, 11) --> 17, (8, 12) --> 22, (8, 13) --> 1, (8, 14) --> 10, (8, 15) --> 3,
                 (9, 1) --> 14, (9, 2) --> 20, (9, 3) --> 8, (9, 4) --> 18, (9, 5) --> 21, (9, 6) --> 1, (9, 7) --> 4,
                 (9, 8) --> 16, (9, 9) --> 0, (9, 10) --> 8, (9, 11) --> 23, (9, 12) --> 2, (9, 13) --> 18,
                 (9, 14) --> 11, (9, 15) --> 16, (10, 1) --> 12, (10, 2) --> 19, (10, 3) --> 12, (10, 4) --> 6,
                 (10, 5) --> 4, (10, 6) --> 16, (10, 7) --> 17, (10, 8) --> 5, (10, 9) --> 8, (10, 10) --> 0,
                 (10, 11) --> 13, (10, 12) --> 17, (10, 13) --> 17, (10, 14) --> 5, (10, 15) --> 10, (11, 1) --> 9,
                 (11, 2) --> 21, (11, 3) --> 4, (11, 4) --> 18, (11, 5) --> 10, (11, 6) --> 6, (11, 7) --> 2,
                 (11, 8) --> 17, (11, 9) --> 23, (11, 10) --> 13, (11, 11) --> 0, (11, 12) --> 12, (11, 13) --> 20,
                 (11, 14) --> 13, (11, 15) --> 2, (12, 1) --> 19, (12, 2) --> 13, (12, 3) --> 7, (12, 4) --> 7,
                 (12, 5) --> 14, (12, 6) --> 21, (12, 7) --> 19, (12, 8) --> 22, (12, 9) --> 2, (12, 10) --> 17,
                 (12, 11) --> 12, (12, 12) --> 0, (12, 13) --> 5, (12, 14) --> 14, (12, 15) --> 19, (13, 1) --> 4,
                 (13, 2) --> 1, (13, 3) --> 3, (13, 4) --> 17, (13, 5) --> 19, (13, 6) --> 4, (13, 7) --> 4,
                 (13, 8) --> 1, (13, 9) --> 18, (13, 10) --> 17, (13, 11) --> 20, (13, 12) --> 5, (13, 13) --> 0,
                 (13, 14) --> 13, (13, 15) --> 4, (14, 1) --> 0, (14, 2) --> 8, (14, 3) --> 21, (14, 4) --> 14,
                 (14, 5) --> 15, (14, 6) --> 12, (14, 7) --> 22, (14, 8) --> 10, (14, 9) --> 11, (14, 10) --> 5,
                 (14, 11) --> 13, (14, 12) --> 14, (14, 13) --> 13, (14, 14) --> 0, (14, 15) --> 4, (15, 1) --> 7,
                 (15, 2) --> 2, (15, 3) --> 6, (15, 4) --> 13, (15, 5) --> 19, (15, 6) --> 8, (15, 7) --> 23,
                 (15, 8) --> 3, (15, 9) --> 16, (15, 10) --> 10, (15, 11) --> 2, (15, 12) --> 19, (15, 13) --> 4,
                 (15, 14) --> 4, (15, 15) --> 0)
letting maxDist be 49
letting minDist be 160
letting nbCharacter be 15
letting numOfCodeWords be 5
